{"OBJ_VAL": 215, "status": "optimal", "Name": "scp56", "time": "N/A", "X": [0, 1, 2, 3, 4, 6, 7, 8, 9, 10, 12, 14, 16, 20, 22, 24, 25, 26, 27, 30, 31, 35, 36, 37, 40, 42, 51, 53, 54, 55, 56, 58, 59, 60, 62, 67, 68, 69, 75, 76, 79, 80, 87, 91, 94, 104, 106, 111, 117, 128, 129, 141, 152, 154, 156, 193, 221, 246, 259], "Pi": [-0.0, -0.0, 1.5, -0.0, -0.0, -0.0, -0.0, 1.0, 2.5, 2.25, -0.0, 1.25, -0.0, -0.0, -0.0, 1.0, 1.0, -0.0, 1.75, -0.0, 5.75, 0.5, -0.0, 2.0, 4.0, 8.0, -0.0, 1.0, 2.0, 4.0, -0.0, 7.0, 3.5, 1.0, 0.5, 2.0, -0.0, 3.0, 3.0, -0.0, -0.0, 0.0, -0.0, -0.0, -0.0, 2.0, -0.0, -0.0, 0.75, 6.0, 0.0, 6.0, 3.0, 0.75, 1.0, -0.0, 5.25, -0.0, -0.0, 6.0, -0.0, 2.0, -0.0, 0.0, 2.0, -0.0, 0.5, 1.0, -0.0, 2.5, -0.0, 3.0, 0.25, 4.0, 6.25, 3.0, -0.0, 0.5, -0.0, -0.0, 6.0, -0.0, 0.5, -0.0, 0.5, 3.5, -0.0, -0.0, -0.0, 3.0, -0.0, -0.0, -0.0, 0.5, 2.0, -0.0, 0.0, 4.5, -0.0, -0.0, 1.0, -0.0, -0.0, 3.0, -0.0, -0.0, -0.0, 0.25, 2.0, -0.0, 2.0, 1.0, 0.0, 0.5, -0.0, -0.0, -0.0, -0.0, -0.0, -0.0, 1.0, -0.0, 3.0, -0.0, -0.0, -0.0, 3.0, -0.0, -0.0, -0.0, -0.0, -0.0, 5.0, 2.0, -0.0, -0.0, -0.0, -0.0, -0.0, 1.5, 3.0, -0.0, 0.25, 1.0, -0.0, 0.5, -0.0, 2.5, -0.0, 2.0, -0.0, -0.0, 1.25, 3.0, 1.0, -0.0, -0.0, -0.0, -0.0, -0.0, 0.75, -0.0, 7.5, 0.75, -0.0, 3.0, -0.0, 1.5, -0.0, -0.0, -0.0, 3.0, -0.0, -0.0, 3.0, 1.0, -0.0, -0.0, -0.0, 2.0, -0.0, 0.0, -0.0, -0.0, 1.5, -0.0, -0.0, -0.0, 7.0, -0.0, -0.0, -0.0, -0.0, -0.0, 1.0, -0.0, -0.0, 1.0, 1.0, 3.0], "Dj": [0.0, 0.0, 0.0, 0.0, 0.0, 1.0, 0.0, 0.0, 0.0, 0.0, 0.0, 0.0, 0.0, 1.0, 0.0, 0.75, 0.0, 1.0, 1.0, 1.0, 0.0, 0.0, 0.0, 1.0, 0.0, 0.0, 0.0, 0.0, 0.75, 0.0, 0.0, 0.0, 1.0, 0.0, 0.0, 0.0, 0.0, 0.0, 0.0, 0.0, 0.0, 1.0, 0.0, 1.75, 0.0, 2.0, 0.0, 2.0, 2.0, 1.5, 1.75, 0.0, 1.0, 0.0, 0.0, 0.0, 0.0, 0.0, 0.0, 0.0, 0.0, 1.75, 0.0, 2.5, 0.0, 1.5, 0.0, 0.0, 0.0, 0.0, 0.0, 0.0, 1.0, 3.0, 0.0, 0.0, 0.0, 0.0, 2.5, 0.0, 0.0, 2.5, 3.5, 2.25, 0.75, 2.0, 0.0, 0.0, 4.0, 4.0, 2.5, 0.0, 2.0, 3.0, 0.0, 4.0, 1.0, 4.0, 0.0, 0.5, 3.5, 5.0, 3.0, 0.0, 0.0, 4.0, 0.0, 0.25, 3.0, 5.5, 5.5, 0.0, 1.75, 6.0, 2.5, 0.25, 0.0, 0.0, 4.5, 4.0, 4.25, 0.0, 3.0, 3.0, 6.0, 4.25, 5.0, 5.25, 0.0, 0.0, 0.0, 3.0, 3.5, 0.25, 0.0, 5.0, 0.0, 0.0, 0.0, 4.5, 6.0, 0.0, 6.0, 2.75, 7.0, 6.0, 6.5, 6.5, 1.0, 7.0, 6.5, 4.5, 0.0, 1.5, 0.0, 7.5, 0.0, 6.0, 1.0, 0.0, 1.5, 7.5, 8.0, 5.0, 5.75, 1.0, 5.5, 5.0, 6.5, 2.5, 0.5, 3.5, 5.0, 8.0, 8.0, 8.0, 8.0, 0.0, 0.0, 6.0, 7.0, 0.0, 7.5, 8.5, 9.0, 7.5, 0.0, 6.0, 2.0, 6.5, 6.25, 7.0, 8.5, 0.0, 6.0, 6.0, 7.0, 7.0, 1.5, 6.0, 7.75, 8.0, 9.0, 9.0, 8.25, 3.75, 6.0, 2.0, 0.5, 4.5, 10.0, 7.75, 6.5, 8.5, 8.0, 8.0, 9.0, 8.75, 6.5, 10.0, 3.0, 0.0, 0.0, 10.0, 3.0, 9.75, 4.5, 6.5, 7.0, 4.5, 4.5, 6.5, 11.0, 10.0, 8.25, 5.0, 11.0, 8.0, 9.0, 7.0, 9.75, 10.0, 7.5, 10.25, 8.0, 8.25, 0.0, 10.5, 9.75, 11.5, 8.0, 10.0, 7.25, 9.0, 11.5, 11.0, 9.5, 7.0, 12.0, 0.0, 12.0, 9.5, 10.0, 7.5, 9.0, 0.0, 10.0, 4.5, 11.75, 9.0, 11.5, 4.0, 11.25, 0.0, 10.25, 10.0, 5.5, 9.5, 7.0, 12.5, 9.5, 4.75, 4.25, 11.5, 11.0, 13.0, 13.0, 11.0, 6.5, 9.5, 11.75, 4.25, 5.5, 12.0, 8.5, 14.0, 6.0, 9.0, 11.0, 13.25, 14.0, 10.25, 12.25, 11.5, 11.75, 2.0, 15.0, 8.0, 12.5, 6.75, 11.75, 13.75, 11.0, 12.5, 13.0, 11.5, 14.75, 12.0, 13.0, 15.0, 0.0, 9.5, 10.0, 12.5, 9.0, 14.5, 15.25, 10.0, 10.0, 8.5, 16.0, 16.0, 13.75, 10.0, 9.25, 10.0, 14.5, 17.0, 9.5, 17.0, 8.75, 13.0, 11.25, 6.0, 15.25, 15.0, 15.0, 11.0, 12.0, 14.25, 18.0, 14.0, 12.0, 11.0, 14.0, 18.0, 11.0, 19.0, 16.0, 18.0, 17.75, 16.0, 19.0, 17.0, 9.75, 16.5, 14.0, 13.75, 13.0, 14.25, 17.5, 14.5, 16.0, 12.5, 12.0, 17.0, 13.0, 12.0, 11.0, 13.25, 11.75, 15.0, 20.0, 12.75, 19.0, 20.0, 20.0, 19.5, 20.0, 14.5, 14.25, 19.0, 14.0, 18.0, 0.75, 13.5, 21.0, 12.0, 19.5, 12.0, 21.0, 18.0, 0.0, 7.0, 20.75, 18.25, 20.0, 18.5, 15.5, 16.0, 18.5, 19.5, 16.75, 9.5, 20.0, 16.0, 10.75, 14.25, 20.75, 16.0, 19.0, 20.5, 17.75, 11.75, 22.0, 22.0, 6.0, 13.75, 22.5, 21.75, 20.0, 20.0, 19.0, 12.25, 23.0, 22.5, 20.0, 20.0, 23.0, 18.0, 20.75, 21.0, 22.0, 23.0, 20.0, 17.5, 14.0, 14.75, 15.5, 15.5, 20.5, 24.0, 20.0, 17.25, 21.0, 19.0, 15.0, 19.5, 22.0, 14.75, 24.0, 24.0, 9.5, 22.25, 24.0, 25.0, 19.75, 19.0, 24.5, 22.0, 18.0, 24.0, 19.25, 24.0, 25.0, 24.0, 25.0, 14.5, 20.75, 15.5, 20.0, 21.25, 21.0, 24.25, 23.5, 25.0, 23.0, 23.0, 26.0, 20.75, 21.0, 25.0, 25.5, 6.25, 19.75, 14.75, 19.75, 25.0, 23.0, 23.75, 17.0, 20.0, 25.5, 26.75, 22.5, 27.0, 25.75, 18.0, 25.0, 23.5, 24.25, 23.25, 17.0, 24.5, 27.0, 8.25, 20.25, 25.75, 23.0, 25.5, 25.0, 26.0, 25.0, 28.0, 27.75, 28.0, 21.0, 26.0, 18.0, 25.75, 20.5, 28.0, 27.5, 27.0, 22.0, 15.75, 19.5, 27.5, 15.0, 22.5, 27.0, 28.75, 24.5, 27.5, 26.0, 22.5, 29.0, 29.0, 29.0, 24.0, 27.5, 25.5, 24.5, 23.25, 29.0, 29.0, 19.75, 29.5, 28.0, 19.25, 28.0, 26.5, 24.5, 29.0, 27.25, 26.0, 27.0, 30.0, 29.0, 30.0, 30.0, 21.5, 21.5, 27.5, 29.0, 25.5, 22.25, 29.0, 30.5, 29.0, 23.0, 31.0, 28.5, 28.5, 31.0, 31.0, 25.75, 31.0, 30.75, 30.5, 28.25, 28.5, 27.75, 21.0, 28.0, 30.0, 23.25, 24.0, 25.0, 27.5, 32.0, 29.0, 26.0, 21.0, 32.0, 32.0, 22.75, 33.0, 27.0, 32.75, 31.75, 24.0, 31.75, 30.0, 32.75, 30.0, 27.0, 28.0, 33.0, 32.5, 32.25, 17.25, 31.75, 32.0, 31.0, 31.0, 30.25, 33.25, 33.0, 32.0, 31.0, 34.0, 28.5, 34.0, 33.5, 33.25, 31.0, 24.25, 17.0, 28.0, 25.5, 34.25, 33.75, 27.0, 28.0, 35.0, 29.0, 29.0, 33.0, 35.0, 34.25, 20.25, 34.0, 34.0, 29.75, 36.0, 33.0, 34.25, 35.0, 29.5, 20.75, 35.0, 31.0, 34.0, 33.5, 25.25, 33.75, 27.0, 30.0, 30.0, 31.5, 29.0, 35.75, 37.0, 36.0, 32.0, 35.0, 37.0, 34.0, 29.0, 34.0, 29.0, 33.5, 37.0, 34.5, 36.0, 29.0, 34.0, 36.5, 35.0, 30.0, 36.0, 30.5, 35.25, 37.5, 24.5, 38.0, 34.0, 32.5, 35.0, 26.0, 38.0, 34.75, 38.0, 38.0, 35.0, 38.0, 38.0, 37.5, 38.0, 32.0, 38.0, 38.0, 35.0, 22.5, 28.0, 29.0, 30.5, 36.0, 37.5, 31.0, 29.0, 38.25, 33.5, 34.0, 32.5, 31.0, 38.0, 39.0, 35.0, 26.75, 39.0, 16.25, 34.5, 35.75, 36.25, 37.0, 37.25, 29.0, 31.5, 35.0, 38.0, 40.0, 39.25, 30.0, 35.0, 40.0, 32.0, 40.0, 32.0, 37.75, 34.25, 37.0, 39.25, 36.25, 41.0, 38.5, 39.0, 39.0, 41.0, 40.75, 36.0, 37.0, 39.5, 41.0, 39.5, 41.0, 37.0, 38.75, 38.0, 39.0, 33.25, 23.5, 25.25, 28.25, 40.5, 35.0, 37.0, 40.5, 32.5, 38.0, 35.75, 42.0, 40.0, 42.0, 36.75, 42.0, 38.0, 35.75, 36.0, 42.0, 40.75, 38.0, 39.0, 37.0, 30.0, 33.0, 40.0, 41.5, 41.5, 42.25, 32.0, 40.0, 40.75, 42.0, 39.0, 40.75, 33.0, 39.5, 36.5, 34.75, 38.0, 43.0, 40.75, 41.0, 36.0, 41.5, 26.0, 41.5, 39.0, 38.5, 40.0, 42.5, 36.5, 44.0, 36.25, 36.0, 37.5, 37.0, 42.5, 43.25, 38.0, 41.0, 42.0, 42.75, 44.0, 42.75, 44.0, 43.0, 37.0, 37.5, 38.0, 42.75, 45.0, 36.5, 36.75, 42.5, 42.5, 41.75, 45.0, 44.0, 35.5, 44.0, 44.0, 40.5, 38.75, 45.0, 41.0, 45.0, 45.0, 45.0, 43.0, 45.0, 38.25, 41.5, 41.5, 36.75, 46.0, 45.5, 42.75, 38.5, 40.0, 46.0, 43.5, 38.0, 46.0, 36.25, 42.0, 46.0, 43.25, 44.75, 45.0, 46.0, 43.75, 37.0, 35.0, 40.5, 37.0, 34.5, 40.5, 42.25, 47.0, 43.75, 45.5, 41.75, 39.5, 45.75, 38.5, 45.0, 46.25, 40.5, 47.0, 47.0, 44.0, 46.0, 45.25, 46.0, 44.0, 47.0, 45.0, 37.0, 40.5, 36.75, 32.5, 42.5, 31.25, 42.25, 40.0, 41.0, 41.0, 46.0, 46.0, 43.0, 46.5, 48.0, 42.75, 44.0, 48.0, 46.75, 46.0, 48.0, 41.0, 41.0, 43.0, 35.0, 45.0, 46.0, 35.0, 40.5, 40.0, 44.5, 40.25, 46.5, 42.75, 38.0, 49.0, 41.25, 44.0, 49.0, 43.0, 43.0, 49.0, 47.75, 43.0, 45.0, 48.5, 46.75, 44.0, 40.25, 45.0, 48.0, 47.0, 41.25, 47.5, 47.0, 48.0, 50.0, 44.75, 46.5, 48.5, 50.0, 39.75, 38.0, 42.75, 46.5, 50.0, 44.25, 48.0, 43.0, 50.25, 51.0, 50.0, 50.0, 46.0, 51.0, 49.0, 51.0, 51.0, 49.0, 51.0, 45.75, 48.25, 45.0, 43.75, 45.0, 44.75, 51.5, 45.75, 44.25, 42.5, 43.0, 51.0, 51.25, 47.25, 52.0, 51.5, 51.0, 48.25, 45.0, 46.0, 44.25, 44.25, 48.0, 52.0, 47.0, 48.0, 51.5, 52.0, 52.0, 42.5, 45.5, 45.0, 46.75, 51.0, 43.25, 46.0, 51.75, 51.75, 45.5, 50.0, 40.0, 51.5, 43.0, 53.0, 50.75, 51.0, 50.0, 50.0, 53.0, 51.0, 52.0, 52.5, 50.0, 50.0, 49.5, 54.0, 51.0, 44.0, 54.0, 48.0, 51.0, 53.25, 51.0, 51.0, 50.5, 42.75, 48.75, 53.0, 50.5, 55.0, 54.0, 48.25, 52.0, 55.0, 53.0, 55.0, 45.0, 48.5, 46.0, 50.0, 50.0, 51.0, 56.0, 51.25, 49.0, 56.0, 49.0, 54.5, 54.5, 50.0, 49.5, 49.0, 54.0, 53.75, 54.0, 53.0, 49.0, 56.0, 55.25, 56.0, 56.0, 54.0, 55.25, 41.5, 51.25, 49.5, 47.75, 55.75, 56.0, 54.0, 51.0, 54.0, 55.0, 56.25, 57.0, 42.25, 54.0, 56.5, 49.0, 55.0, 56.75, 57.0, 57.0, 57.0, 47.0, 50.75, 50.75, 56.25, 54.5, 49.0, 57.75, 55.75, 56.0, 46.5, 51.0, 53.75, 54.0, 51.0, 55.75, 53.5, 43.5, 56.0, 56.0, 58.0, 56.75, 52.5, 53.5, 58.0, 56.0, 52.25, 46.0, 54.75, 48.0, 58.75, 52.75, 53.0, 56.5, 55.5, 54.0, 58.0, 52.75, 51.0, 51.5, 55.5, 58.75, 57.0, 52.0, 54.0, 58.0, 53.75, 58.75, 54.25, 50.25, 57.75, 60.0, 55.5, 54.0, 59.0, 58.75, 58.0, 52.5, 58.25, 59.0, 59.5, 47.0, 57.5, 54.0, 60.0, 60.0, 58.5, 53.5, 48.25, 43.5, 40.75, 47.75, 60.25, 59.5, 54.25, 54.5, 57.75, 61.0, 60.25, 56.5, 59.0, 61.0, 52.25, 60.0, 58.0, 61.0, 60.0, 50.25, 50.75, 59.75, 54.0, 59.0, 61.0, 62.0, 55.75, 55.5, 47.0, 51.0, 58.0, 58.75, 55.5, 56.0, 58.25, 57.25, 60.75, 61.75, 58.0, 60.75, 61.0, 60.5, 59.5, 55.5, 56.5, 62.25, 56.5, 60.0, 62.25, 51.25, 48.5, 62.0, 62.5, 58.0, 58.5, 59.5, 63.0, 62.0, 57.5, 50.0, 58.0, 57.25, 57.75, 63.0, 63.0, 59.0, 61.75, 55.0, 54.25, 61.0, 58.5, 62.75, 60.5, 58.5, 55.25, 63.25, 64.0, 64.0, 64.0, 64.0, 62.25, 54.5, 61.0, 59.5, 61.75, 62.5, 59.5, 58.0, 62.5, 62.5, 62.0, 63.75, 64.25, 57.25, 58.25, 65.0, 54.5, 57.0, 55.5, 65.0, 55.5, 59.75, 59.0, 65.0, 59.0, 60.25, 59.5, 51.5, 55.5, 50.0, 65.75, 62.0, 60.5, 61.75, 64.0, 66.0, 65.5, 65.0, 66.0, 66.0, 54.75, 64.75, 58.25, 64.5, 59.0, 60.5, 64.0, 64.0, 57.0, 62.5, 64.0, 60.0, 56.0, 64.5, 66.5, 66.25, 65.75, 62.0, 65.25, 64.0, 63.5, 63.0, 67.0, 59.0, 60.75, 62.5, 64.0, 68.0, 67.25, 61.25, 67.0, 63.0, 64.0, 66.0, 64.5, 55.75, 67.75, 63.75, 65.5, 69.0, 69.0, 65.25, 63.75, 67.75, 64.25, 69.0, 61.0, 64.5, 68.0, 59.5, 68.75, 68.0, 69.0, 69.0, 59.75, 63.5, 67.5, 63.0, 57.75, 64.25, 69.25, 56.75, 54.0, 68.0, 69.0, 67.0, 69.0, 63.0, 67.5, 70.0, 70.0, 67.0, 61.0, 69.25, 60.75, 67.0, 70.5, 71.0, 71.0, 64.75, 70.75, 69.0, 68.0, 66.75, 70.5, 68.0, 68.25, 69.0, 67.0, 64.0, 69.75, 64.5, 71.0, 71.0, 70.5, 65.25, 67.5, 68.0, 59.0, 64.5, 69.75, 67.5, 59.5, 58.25, 67.5, 71.5, 68.75, 68.25, 70.75, 63.75, 67.0, 72.0, 70.0, 71.5, 56.25, 65.75, 70.0, 71.75, 67.0, 63.75, 71.25, 69.5, 71.0, 73.0, 71.0, 70.0, 73.0, 72.5, 71.5, 72.0, 69.0, 73.0, 73.0, 67.0, 73.0, 64.5, 69.0, 73.5, 63.0, 65.5, 69.0, 68.0, 73.0, 71.5, 65.0, 73.5, 71.0, 73.0, 74.0, 68.75, 70.5, 68.25, 57.25, 68.0, 61.75, 68.0, 74.0, 72.0, 69.25, 73.0, 69.0, 67.0, 70.5, 73.0, 69.5, 66.75, 71.0, 67.25, 69.5, 68.75, 69.25, 76.0, 69.0, 72.5, 71.0, 74.5, 71.5, 73.5, 75.0, 71.0, 73.0, 75.5, 75.75, 76.0, 71.0, 69.25, 75.0, 72.0, 71.0, 76.25, 69.5, 70.0, 73.75, 73.25, 73.5, 75.25, 77.0, 77.0, 71.0, 77.0, 76.25, 72.5, 74.25, 69.0, 74.75, 76.75, 75.0, 76.75, 76.0, 77.0, 77.0, 71.5, 77.0, 77.25, 71.0, 72.5, 76.5, 69.5, 70.0, 69.5, 73.25, 74.25, 78.0, 70.5, 72.0, 59.5, 64.5, 73.5, 71.0, 73.5, 78.0, 77.5, 78.0, 72.0, 76.0, 73.5, 76.0, 77.25, 78.0, 71.0, 71.0, 76.0, 75.0, 72.0, 79.0, 76.0, 79.0, 78.25, 70.5, 75.5, 78.5, 77.0, 75.25, 76.0, 73.75, 73.0, 72.0, 76.0, 77.5, 79.0, 78.0, 80.0, 79.0, 71.5, 75.0, 78.0, 76.0, 80.0, 78.0, 72.0, 71.75, 77.5, 77.5, 75.75, 72.0, 80.25, 77.0, 78.75, 79.0, 77.25, 81.0, 80.5, 77.0, 81.0, 81.0, 81.0, 80.25, 79.5, 78.0, 71.5, 75.5, 72.75, 74.25, 81.25, 79.0, 79.0, 80.5, 79.0, 74.0, 76.0, 80.0, 82.5, 77.75, 81.0, 75.0, 69.0, 77.25, 79.5, 74.0, 81.75, 80.0, 82.0, 83.0, 83.0, 79.5, 82.0, 76.75, 81.0, 79.5, 81.75, 79.75, 76.75, 82.0, 75.0, 73.0, 76.0, 82.0, 79.0, 84.0, 78.25, 81.0, 83.0, 83.0, 79.0, 84.0, 84.0, 81.0, 78.0, 83.0, 82.75, 82.0, 82.25, 79.5, 81.25, 78.25, 73.5, 78.0, 85.0, 81.0, 73.75, 76.0, 79.0, 78.5, 83.75, 82.0, 79.75, 84.25, 84.0, 83.75, 85.0, 83.75, 79.5, 82.0, 77.0, 76.0, 82.0, 85.75, 78.5, 77.25, 84.0, 80.0, 79.0, 81.0, 80.5, 85.5, 86.0, 80.5, 83.0, 85.0, 86.0, 80.0, 80.0, 85.0, 86.0, 83.5, 80.5, 75.75, 82.0, 80.0, 84.0, 87.0, 87.0, 74.5, 80.0, 84.5, 79.75, 84.75, 80.5, 77.0, 81.0, 84.0, 83.25, 85.0, 74.75, 84.25, 72.75, 83.75, 77.0, 76.0, 84.25, 77.0, 80.5, 86.0, 79.25, 87.75, 80.5, 81.5, 85.0, 87.0, 85.75, 85.5, 79.75, 86.25, 85.0, 88.0, 87.25, 85.0, 88.0, 87.0, 88.0, 87.75, 69.5, 81.75, 86.0, 80.25, 80.5, 86.25, 80.0, 87.5, 87.0, 89.0, 84.75, 89.0, 88.0, 81.75, 81.0, 89.0, 87.0, 77.5, 81.0, 77.75, 79.25, 75.0, 83.0, 81.25, 87.0, 87.25, 88.5, 82.5, 89.0, 89.25, 88.25, 89.0, 86.0, 86.5, 90.0, 83.0, 86.75, 83.5, 90.75, 84.75, 84.0, 82.75, 77.0, 84.0, 78.5, 88.25, 91.0, 89.0, 83.0, 88.0, 90.0, 88.0, 91.0, 88.5, 88.5, 87.0, 91.0, 91.0, 91.0, 72.75, 86.5, 88.5, 82.25, 88.5, 82.75, 82.75, 82.0, 87.5, 86.5, 83.75, 91.0, 86.0, 92.0, 88.25, 92.0, 90.0, 78.5, 86.0, 79.5, 91.0, 92.0, 91.5, 90.0, 91.5, 90.0, 92.0, 88.5, 86.5, 91.5, 88.5, 91.0, 90.0, 88.0, 93.0, 88.75, 90.25, 93.0, 92.0, 90.0, 91.5, 93.0, 92.25, 93.0, 93.0, 79.5, 87.75, 87.0, 92.5, 93.5, 83.5, 86.75, 91.25, 91.5, 94.0, 94.0, 83.5, 92.5, 88.75, 92.5, 93.25, 88.0, 86.25, 93.0, 94.0, 90.0, 94.0, 90.0, 90.75, 94.0, 92.0, 89.5, 89.25, 85.0, 83.5, 88.0, 86.5, 89.5, 92.0, 93.5, 95.0, 92.0, 88.5, 92.25, 89.0, 95.0, 91.5, 95.0, 91.0, 94.0, 89.5, 94.0, 95.0, 95.0, 92.5, 87.75, 92.5, 91.5, 82.75, 95.0, 96.0, 88.5, 90.0, 96.0, 93.0, 92.25, 94.0, 93.0, 94.0, 94.0, 93.0, 93.0, 95.0, 94.0, 95.5, 94.75, 93.0, 96.0, 94.5, 96.0, 96.0, 95.0, 77.75, 93.5, 89.5, 97.0, 90.25, 93.0, 91.0, 97.0, 95.75, 96.5, 90.75, 89.0, 90.75, 95.5, 95.0, 93.0, 96.0, 96.25, 88.5, 92.75, 95.0, 92.0, 95.0, 93.25, 83.0, 94.0, 91.5, 98.0, 96.75, 91.5, 98.0, 93.0, 96.25, 97.0, 98.0, 96.25, 85.75, 98.0, 97.25, 97.0, 83.0, 86.5, 93.5, 89.25, 96.0, 99.0, 90.25, 97.0, 98.5, 99.0, 98.0, 98.5, 97.0, 96.5, 99.0, 94.5, 94.75, 97.5, 99.0, 88.0, 97.75, 100.0, 95.25, 91.0, 97.0, 99.75, 98.0, 97.5, 93.5, 92.5, 92.5, 99.0, 96.0, 99.0, 94.0, 97.75, 92.0, 98.5, 97.5, 97.0, 100.0, 95.75, 95.5, 100.0, 98.5, 100.0, 93.0], "slack": [-2.0, -3.5, 0.0, -1.0, -0.5, 0.0, -1.0, 0.0, 0.0, 0.0, -1.0, 0.0, -1.0, -1.0, -2.0, 0.0, 0.0, -1.5, 0.0, -1.0, 0.0, 0.0, -1.0, 0.0, 0.0, 0.0, 0.0, 0.0, 0.0, 0.0, -1.0, 0.0, 0.0, 0.0, 0.0, 0.0, -1.0, 0.0, 0.0, -1.0, 0.0, 0.0, -1.0, 0.0, -1.5, 0.0, -1.0, 0.0, 0.0, 0.0, 0.0, 0.0, 0.0, 0.0, 0.0, -1.0, 0.0, -1.0, -0.5, 0.0, -1.0, 0.0, 0.0, 0.0, 0.0, 0.0, 0.0, 0.0, -1.0, 0.0, 0.0, 0.0, 0.0, 0.0, 0.0, 0.0, -2.0, 0.0, -1.0, 0.0, 0.0, 0.0, 0.0, 0.0, 0.0, 0.0, -1.0, 0.0, -1.0, 0.0, -0.5, 0.0, -1.5, 0.0, 0.0, -0.5, 0.0, 0.0, -1.0, -1.0, 0.0, -1.0, 0.0, 0.0, -2.0, 0.0, -1.0, 0.0, 0.0, 0.0, 0.0, 0.0, 0.0, 0.0, 0.0, -3.0, 0.0, -1.0, -1.0, -1.0, 0.0, -3.0, 0.0, 0.0, -1.0, -2.0, 0.0, -1.0, -1.0, -1.0, 0.0, -0.5, 0.0, 0.0, -1.0, -2.0, 0.0, -1.0, 0.0, 0.0, 0.0, 0.0, 0.0, 0.0, 0.0, 0.0, 0.0, 0.0, -1.0, 0.0, 0.0, -1.0, 0.0, 0.0, 0.0, -1.0, -1.0, 0.0, 0.0, 0.0, 0.0, -1.0, 0.0, 0.0, 0.0, 0.0, -1.0, 0.0, -1.0, -1.0, -1.0, 0.0, 0.0, -2.0, 0.0, 0.0, 0.0, -1.0, -1.0, 0.0, -1.0, 0.0, 0.0, 0.0, 0.0, 0.0, -2.0, 0.0, 0.0, -1.0, 0.0, -1.0, -1.0, -1.0, 0.0, -1.0, 0.0, 0.0, 0.0, 0.0], "density": 0.0199875, "feasible": true, "X_len": 59, "mode": "AAD", "factor": 0, "obj_val": 212.5, "x": [1.0, 1.0, 1.0, 1.0, 1.0, 0.0, 1.0, 1.0, 1.0, 1.0, 0.5, 0.0, 1.0, 0.0, 1.0, 0.0, 1.0, 0.0, 0.0, 0.0, 1.0, 0.0, 1.0, 0.0, 1.0, 0.5, 1.0, 1.0, 0.0, 0.0, 0.5, 1.0, 0.0, 0.0, 0.0, 1.0, 1.0, 1.0, 0.0, 0.0, 1.0, 0.0, 1.0, 0.0, 0.0, 0.0, 0.0, 0.0, 0.0, 0.0, 0.0, 1.0, 0.0, 1.0, 1.0, 1.0, 1.0, 0.0, 1.0, 1.0, 1.0, 0.0, 1.0, 0.0, 0.0, 0.0, 0.0, 1.0, 1.0, 1.0, 0.0, 0.0, 0.0, 0.0, 0.0, 1.0, 1.0, 0.0, 0.0, 1.0, 1.0, 0.0, 0.0, 0.0, 0.0, 0.0, 0.0, 1.0, 0.0, 0.0, 0.0, 1.0, 0.0, 0.0, 1.0, 0.0, 0.0, 0.0, 0.0, 0.0, 0.0, 0.0, 0.0, 0.0, 1.0, 0.0, 1.0, 0.0, 0.0, 0.0, 0.0, 1.0, 0.0, 0.0, 0.0, 0.0, 0.0, 1.0, 0.0, 0.0, 0.0, 0.0, 0.0, 0.0, 0.0, 0.0, 0.0, 0.0, 1.0, 1.0, 0.0, 0.0, 0.0, 0.0, 0.0, 0.0, 0.0, 0.0, 0.0, 0.0, 0.0, 1.0, 0.0, 0.0, 0.0, 0.0, 0.0, 0.0, 0.0, 0.0, 0.0, 0.0, 1.0, 0.0, 1.0, 0.0, 1.0, 0.0, 0.0, 0.0, 0.0, 0.0, 0.0, 0.0, 0.0, 0.0, 0.0, 0.0, 0.0, 0.0, 0.0, 0.0, 0.0, 0.0, 0.0, 0.0, 0.0, 0.0, 0.0, 0.0, 0.0, 0.0, 0.0, 0.0, 0.0, 0.0, 0.0, 0.0, 0.0, 0.0, 0.0, 0.0, 0.0, 1.0, 0.0, 0.0, 0.0, 0.0, 0.0, 0.0, 0.0, 0.0, 0.0, 0.0, 0.0, 0.0, 0.0, 0.0, 0.0, 0.0, 0.0, 0.0, 0.0, 0.0, 0.0, 0.0, 0.0, 0.0, 0.0, 0.0, 0.0, 1.0, 0.0, 0.0, 0.0, 0.0, 0.0, 0.0, 0.0, 0.0, 0.0, 0.0, 0.0, 0.0, 0.0, 0.0, 0.0, 0.0, 0.0, 0.0, 0.0, 0.0, 0.0, 0.0, 0.0, 0.0, 1.0, 0.0, 0.0, 0.0, 0.0, 0.0, 0.0, 0.0, 0.0, 0.0, 0.0, 0.0, 0.0, 1.0, 0.0, 0.0, 0.0, 0.0, 0.0, 0.0, 0.0, 0.0, 0.0, 0.0, 0.0, 0.0, 0.0, 0.0, 0.0, 0.0, 0.0, 0.0, 0.0, 0.0, 0.0, 0.0, 0.0, 0.0, 0.0, 0.0, 0.0, 0.0, 0.0, 0.0, 0.0, 0.0, 0.0, 0.0, 0.0, 0.0, 0.0, 0.0, 0.0, 0.0, 0.0, 0.0, 0.0, 0.0, 0.0, 0.0, 0.0, 0.0, 0.0, 0.0, 0.0, 0.0, 0.0, 0.0, 0.0, 0.0, 0.0, 0.0, 0.0, 0.0, 0.0, 0.0, 0.0, 0.0, 0.0, 0.0, 0.0, 0.0, 0.0, 0.0, 0.0, 0.0, 0.0, 0.0, 0.0, 0.0, 0.0, 0.0, 0.0, 0.0, 0.0, 0.0, 0.0, 0.0, 0.0, 0.0, 0.0, 0.0, 0.0, 0.0, 0.0, 0.0, 0.0, 0.0, 0.0, 0.0, 0.0, 0.0, 0.0, 0.0, 0.0, 0.0, 0.0, 0.0, 0.0, 0.0, 0.0, 0.0, 0.0, 0.0, 0.0, 0.0, 0.0, 0.0, 0.0, 0.0, 0.0, 0.0, 0.0, 0.0, 0.0, 0.0, 0.0, 0.0, 0.0, 0.0, 0.0, 0.0, 0.0, 0.0, 0.0, 0.0, 0.0, 0.0, 0.0, 0.0, 0.0, 0.0, 0.0, 0.0, 0.0, 0.0, 0.0, 0.0, 0.0, 0.0, 0.0, 0.0, 0.0, 0.0, 0.0, 0.0, 0.0, 0.0, 0.0, 0.0, 0.0, 0.0, 0.0, 0.0, 0.0, 0.0, 0.0, 0.0, 0.0, 0.0, 0.0, 0.0, 0.0, 0.0, 0.0, 0.0, 0.0, 0.0, 0.0, 0.0, 0.0, 0.0, 0.0, 0.0, 0.0, 0.0, 0.0, 0.0, 0.0, 0.0, 0.0, 0.0, 0.0, 0.0, 0.0, 0.0, 0.0, 0.0, 0.0, 0.0, 0.0, 0.0, 0.0, 0.0, 0.0, 0.0, 0.0, 0.0, 0.0, 0.0, 0.0, 0.0, 0.0, 0.0, 0.0, 0.0, 0.0, 0.0, 0.0, 0.0, 0.0, 0.0, 0.0, 0.0, 0.0, 0.0, 0.0, 0.0, 0.0, 0.0, 0.0, 0.0, 0.0, 0.0, 0.0, 0.0, 0.0, 0.0, 0.0, 0.0, 0.0, 0.0, 0.0, 0.0, 0.0, 0.0, 0.0, 0.0, 0.0, 0.0, 0.0, 0.0, 0.0, 0.0, 0.0, 0.0, 0.0, 0.0, 0.0, 0.0, 0.0, 0.0, 0.0, 0.0, 0.0, 0.0, 0.0, 0.0, 0.0, 0.0, 0.0, 0.0, 0.0, 0.0, 0.0, 0.0, 0.0, 0.0, 0.0, 0.0, 0.0, 0.0, 0.0, 0.0, 0.0, 0.0, 0.0, 0.0, 0.0, 0.0, 0.0, 0.0, 0.0, 0.0, 0.0, 0.0, 0.0, 0.0, 0.0, 0.0, 0.0, 0.0, 0.0, 0.0, 0.0, 0.0, 0.0, 0.0, 0.0, 0.0, 0.0, 0.0, 0.0, 0.0, 0.0, 0.0, 0.0, 0.0, 0.0, 0.0, 0.0, 0.0, 0.0, 0.0, 0.0, 0.0, 0.0, 0.0, 0.0, 0.0, 0.0, 0.0, 0.0, 0.0, 0.0, 0.0, 0.0, 0.0, 0.0, 0.0, 0.0, 0.0, 0.0, 0.0, 0.0, 0.0, 0.0, 0.0, 0.0, 0.0, 0.0, 0.0, 0.0, 0.0, 0.0, 0.0, 0.0, 0.0, 0.0, 0.0, 0.0, 0.0, 0.0, 0.0, 0.0, 0.0, 0.0, 0.0, 0.0, 0.0, 0.0, 0.0, 0.0, 0.0, 0.0, 0.0, 0.0, 0.0, 0.0, 0.0, 0.0, 0.0, 0.0, 0.0, 0.0, 0.0, 0.0, 0.0, 0.0, 0.0, 0.0, 0.0, 0.0, 0.0, 0.0, 0.0, 0.0, 0.0, 0.0, 0.0, 0.0, 0.0, 0.0, 0.0, 0.0, 0.0, 0.0, 0.0, 0.0, 0.0, 0.0, 0.0, 0.0, 0.0, 0.0, 0.0, 0.0, 0.0, 0.0, 0.0, 0.0, 0.0, 0.0, 0.0, 0.0, 0.0, 0.0, 0.0, 0.0, 0.0, 0.0, 0.0, 0.0, 0.0, 0.0, 0.0, 0.0, 0.0, 0.0, 0.0, 0.0, 0.0, 0.0, 0.0, 0.0, 0.0, 0.0, 0.0, 0.0, 0.0, 0.0, 0.0, 0.0, 0.0, 0.0, 0.0, 0.0, 0.0, 0.0, 0.0, 0.0, 0.0, 0.0, 0.0, 0.0, 0.0, 0.0, 0.0, 0.0, 0.0, 0.0, 0.0, 0.0, 0.0, 0.0, 0.0, 0.0, 0.0, 0.0, 0.0, 0.0, 0.0, 0.0, 0.0, 0.0, 0.0, 0.0, 0.0, 0.0, 0.0, 0.0, 0.0, 0.0, 0.0, 0.0, 0.0, 0.0, 0.0, 0.0, 0.0, 0.0, 0.0, 0.0, 0.0, 0.0, 0.0, 0.0, 0.0, 0.0, 0.0, 0.0, 0.0, 0.0, 0.0, 0.0, 0.0, 0.0, 0.0, 0.0, 0.0, 0.0, 0.0, 0.0, 0.0, 0.0, 0.0, 0.0, 0.0, 0.0, 0.0, 0.0, 0.0, 0.0, 0.0, 0.0, 0.0, 0.0, 0.0, 0.0, 0.0, 0.0, 0.0, 0.0, 0.0, 0.0, 0.0, 0.0, 0.0, 0.0, 0.0, 0.0, 0.0, 0.0, 0.0, 0.0, 0.0, 0.0, 0.0, 0.0, 0.0, 0.0, 0.0, 0.0, 0.0, 0.0, 0.0, 0.0, 0.0, 0.0, 0.0, 0.0, 0.0, 0.0, 0.0, 0.0, 0.0, 0.0, 0.0, 0.0, 0.0, 0.0, 0.0, 0.0, 0.0, 0.0, 0.0, 0.0, 0.0, 0.0, 0.0, 0.0, 0.0, 0.0, 0.0, 0.0, 0.0, 0.0, 0.0, 0.0, 0.0, 0.0, 0.0, 0.0, 0.0, 0.0, 0.0, 0.0, 0.0, 0.0, 0.0, 0.0, 0.0, 0.0, 0.0, 0.0, 0.0, 0.0, 0.0, 0.0, 0.0, 0.0, 0.0, 0.0, 0.0, 0.0, 0.0, 0.0, 0.0, 0.0, 0.0, 0.0, 0.0, 0.0, 0.0, 0.0, 0.0, 0.0, 0.0, 0.0, 0.0, 0.0, 0.0, 0.0, 0.0, 0.0, 0.0, 0.0, 0.0, 0.0, 0.0, 0.0, 0.0, 0.0, 0.0, 0.0, 0.0, 0.0, 0.0, 0.0, 0.0, 0.0, 0.0, 0.0, 0.0, 0.0, 0.0, 0.0, 0.0, 0.0, 0.0, 0.0, 0.0, 0.0, 0.0, 0.0, 0.0, 0.0, 0.0, 0.0, 0.0, 0.0, 0.0, 0.0, 0.0, 0.0, 0.0, 0.0, 0.0, 0.0, 0.0, 0.0, 0.0, 0.0, 0.0, 0.0, 0.0, 0.0, 0.0, 0.0, 0.0, 0.0, 0.0, 0.0, 0.0, 0.0, 0.0, 0.0, 0.0, 0.0, 0.0, 0.0, 0.0, 0.0, 0.0, 0.0, 0.0, 0.0, 0.0, 0.0, 0.0, 0.0, 0.0, 0.0, 0.0, 0.0, 0.0, 0.0, 0.0, 0.0, 0.0, 0.0, 0.0, 0.0, 0.0, 0.0, 0.0, 0.0, 0.0, 0.0, 0.0, 0.0, 0.0, 0.0, 0.0, 0.0, 0.0, 0.0, 0.0, 0.0, 0.0, 0.0, 0.0, 0.0, 0.0, 0.0, 0.0, 0.0, 0.0, 0.0, 0.0, 0.0, 0.0, 0.0, 0.0, 0.0, 0.0, 0.0, 0.0, 0.0, 0.0, 0.0, 0.0, 0.0, 0.0, 0.0, 0.0, 0.0, 0.0, 0.0, 0.0, 0.0, 0.0, 0.0, 0.0, 0.0, 0.0, 0.0, 0.0, 0.0, 0.0, 0.0, 0.0, 0.0, 0.0, 0.0, 0.0, 0.0, 0.0, 0.0, 0.0, 0.0, 0.0, 0.0, 0.0, 0.0, 0.0, 0.0, 0.0, 0.0, 0.0, 0.0, 0.0, 0.0, 0.0, 0.0, 0.0, 0.0, 0.0, 0.0, 0.0, 0.0, 0.0, 0.0, 0.0, 0.0, 0.0, 0.0, 0.0, 0.0, 0.0, 0.0, 0.0, 0.0, 0.0, 0.0, 0.0, 0.0, 0.0, 0.0, 0.0, 0.0, 0.0, 0.0, 0.0, 0.0, 0.0, 0.0, 0.0, 0.0, 0.0, 0.0, 0.0, 0.0, 0.0, 0.0, 0.0, 0.0, 0.0, 0.0, 0.0, 0.0, 0.0, 0.0, 0.0, 0.0, 0.0, 0.0, 0.0, 0.0, 0.0, 0.0, 0.0, 0.0, 0.0, 0.0, 0.0, 0.0, 0.0, 0.0, 0.0, 0.0, 0.0, 0.0, 0.0, 0.0, 0.0, 0.0, 0.0, 0.0, 0.0, 0.0, 0.0, 0.0, 0.0, 0.0, 0.0, 0.0, 0.0, 0.0, 0.0, 0.0, 0.0, 0.0, 0.0, 0.0, 0.0, 0.0, 0.0, 0.0, 0.0, 0.0, 0.0, 0.0, 0.0, 0.0, 0.0, 0.0, 0.0, 0.0, 0.0, 0.0, 0.0, 0.0, 0.0, 0.0, 0.0, 0.0, 0.0, 0.0, 0.0, 0.0, 0.0, 0.0, 0.0, 0.0, 0.0, 0.0, 0.0, 0.0, 0.0, 0.0, 0.0, 0.0, 0.0, 0.0, 0.0, 0.0, 0.0, 0.0, 0.0, 0.0, 0.0, 0.0, 0.0, 0.0, 0.0, 0.0, 0.0, 0.0, 0.0, 0.0, 0.0, 0.0, 0.0, 0.0, 0.0, 0.0, 0.0, 0.0, 0.0, 0.0, 0.0, 0.0, 0.0, 0.0, 0.0, 0.0, 0.0, 0.0, 0.0, 0.0, 0.0, 0.0, 0.0, 0.0, 0.0, 0.0, 0.0, 0.0, 0.0, 0.0, 0.0, 0.0, 0.0, 0.0, 0.0, 0.0, 0.0, 0.0, 0.0, 0.0, 0.0, 0.0, 0.0, 0.0, 0.0, 0.0, 0.0, 0.0, 0.0, 0.0, 0.0, 0.0, 0.0, 0.0, 0.0, 0.0, 0.0, 0.0, 0.0, 0.0, 0.0, 0.0, 0.0, 0.0, 0.0, 0.0, 0.0, 0.0, 0.0, 0.0, 0.0, 0.0, 0.0, 0.0, 0.0, 0.0, 0.0, 0.0, 0.0, 0.0, 0.0, 0.0, 0.0, 0.0, 0.0, 0.0, 0.0, 0.0, 0.0, 0.0, 0.0, 0.0, 0.0, 0.0, 0.0, 0.0, 0.0, 0.0, 0.0, 0.0, 0.0, 0.0, 0.0, 0.0, 0.0, 0.0, 0.0, 0.0, 0.0, 0.0, 0.0, 0.0, 0.0, 0.0, 0.0, 0.0, 0.0, 0.0, 0.0, 0.0, 0.0, 0.0, 0.0, 0.0, 0.0, 0.0, 0.0, 0.0, 0.0, 0.0, 0.0, 0.0, 0.0, 0.0, 0.0, 0.0, 0.0, 0.0, 0.0, 0.0, 0.0, 0.0, 0.0, 0.0, 0.0, 0.0, 0.0, 0.0, 0.0, 0.0, 0.0, 0.0, 0.0, 0.0, 0.0, 0.0, 0.0, 0.0, 0.0, 0.0, 0.0, 0.0, 0.0, 0.0, 0.0, 0.0, 0.0, 0.0, 0.0, 0.0, 0.0, 0.0, 0.0, 0.0, 0.0, 0.0, 0.0, 0.0, 0.0, 0.0, 0.0, 0.0, 0.0, 0.0, 0.0, 0.0, 0.0, 0.0, 0.0, 0.0, 0.0, 0.0, 0.0, 0.0, 0.0, 0.0, 0.0, 0.0, 0.0, 0.0, 0.0, 0.0, 0.0, 0.0, 0.0, 0.0, 0.0, 0.0, 0.0, 0.0, 0.0, 0.0, 0.0, 0.0, 0.0, 0.0, 0.0, 0.0, 0.0, 0.0, 0.0, 0.0, 0.0, 0.0, 0.0, 0.0, 0.0, 0.0, 0.0, 0.0, 0.0, 0.0, 0.0, 0.0, 0.0, 0.0, 0.0, 0.0, 0.0, 0.0, 0.0, 0.0, 0.0, 0.0, 0.0, 0.0, 0.0, 0.0, 0.0, 0.0, 0.0, 0.0, 0.0, 0.0, 0.0, 0.0, 0.0, 0.0, 0.0, 0.0, 0.0, 0.0, 0.0, 0.0, 0.0, 0.0, 0.0, 0.0, 0.0, 0.0, 0.0, 0.0, 0.0, 0.0, 0.0, 0.0, 0.0, 0.0, 0.0, 0.0, 0.0, 0.0, 0.0, 0.0, 0.0, 0.0, 0.0, 0.0, 0.0, 0.0, 0.0, 0.0, 0.0, 0.0, 0.0, 0.0, 0.0, 0.0, 0.0, 0.0, 0.0, 0.0, 0.0, 0.0, 0.0, 0.0, 0.0, 0.0, 0.0, 0.0, 0.0, 0.0, 0.0, 0.0, 0.0, 0.0, 0.0, 0.0, 0.0, 0.0, 0.0, 0.0, 0.0, 0.0, 0.0, 0.0, 0.0, 0.0, 0.0, 0.0, 0.0, 0.0, 0.0, 0.0, 0.0, 0.0, 0.0, 0.0, 0.0, 0.0, 0.0, 0.0, 0.0, 0.0, 0.0, 0.0, 0.0, 0.0, 0.0, 0.0, 0.0, 0.0, 0.0, 0.0, 0.0, 0.0, 0.0, 0.0, 0.0, 0.0, 0.0, 0.0, 0.0, 0.0, 0.0, 0.0, 0.0, 0.0, 0.0, 0.0, 0.0, 0.0, 0.0, 0.0, 0.0, 0.0, 0.0, 0.0, 0.0, 0.0, 0.0, 0.0, 0.0, 0.0, 0.0, 0.0, 0.0, 0.0, 0.0, 0.0, 0.0, 0.0, 0.0, 0.0, 0.0, 0.0, 0.0, 0.0, 0.0, 0.0, 0.0, 0.0, 0.0, 0.0, 0.0, 0.0, 0.0, 0.0, 0.0, 0.0, 0.0, 0.0, 0.0, 0.0, 0.0, 0.0, 0.0, 0.0, 0.0, 0.0, 0.0, 0.0, 0.0, 0.0, 0.0, 0.0, 0.0, 0.0, 0.0, 0.0, 0.0, 0.0, 0.0, 0.0, 0.0, 0.0, 0.0, 0.0, 0.0, 0.0, 0.0, 0.0, 0.0, 0.0, 0.0, 0.0, 0.0, 0.0, 0.0, 0.0, 0.0, 0.0, 0.0, 0.0, 0.0, 0.0, 0.0, 0.0, 0.0, 0.0, 0.0, 0.0, 0.0, 0.0, 0.0, 0.0, 0.0, 0.0, 0.0, 0.0, 0.0, 0.0, 0.0, 0.0, 0.0, 0.0, 0.0, 0.0, 0.0, 0.0, 0.0, 0.0, 0.0, 0.0, 0.0, 0.0, 0.0, 0.0, 0.0, 0.0, 0.0, 0.0, 0.0, 0.0, 0.0, 0.0, 0.0, 0.0, 0.0, 0.0, 0.0, 0.0, 0.0, 0.0, 0.0, 0.0, 0.0, 0.0, 0.0, 0.0, 0.0, 0.0, 0.0, 0.0, 0.0, 0.0, 0.0, 0.0, 0.0, 0.0, 0.0, 0.0, 0.0, 0.0, 0.0, 0.0, 0.0, 0.0, 0.0, 0.0, 0.0, 0.0, 0.0, 0.0, 0.0, 0.0, 0.0, 0.0, 0.0, 0.0, 0.0, 0.0, 0.0, 0.0, 0.0, 0.0, 0.0, 0.0, 0.0, 0.0, 0.0, 0.0, 0.0, 0.0, 0.0, 0.0, 0.0, 0.0, 0.0, 0.0, 0.0, 0.0, 0.0, 0.0, 0.0, 0.0, 0.0, 0.0, 0.0, 0.0, 0.0, 0.0, 0.0, 0.0, 0.0, 0.0, 0.0, 0.0, 0.0, 0.0, 0.0, 0.0, 0.0, 0.0, 0.0, 0.0, 0.0, 0.0, 0.0, 0.0, 0.0, 0.0, 0.0, 0.0, 0.0, 0.0, 0.0, 0.0, 0.0, 0.0, 0.0, 0.0, 0.0, 0.0, 0.0, 0.0, 0.0, 0.0, 0.0, 0.0, 0.0, 0.0, 0.0, 0.0, 0.0, 0.0, 0.0, 0.0, 0.0, 0.0, 0.0, 0.0, 0.0, 0.0, 0.0, 0.0, 0.0, 0.0, 0.0, 0.0, 0.0, 0.0, 0.0, 0.0, 0.0, 0.0, 0.0, 0.0, 0.0, 0.0, 0.0, 0.0, 0.0, 0.0, 0.0, 0.0, 0.0, 0.0, 0.0, 0.0, 0.0, 0.0, 0.0, 0.0, 0.0, 0.0, 0.0, 0.0, 0.0, 0.0, 0.0, 0.0, 0.0, 0.0, 0.0, 0.0, 0.0, 0.0, 0.0, 0.0, 0.0, 0.0, 0.0, 0.0, 0.0, 0.0, 0.0, 0.0, 0.0, 0.0, 0.0, 0.0, 0.0, 0.0, 0.0, 0.0, 0.0, 0.0, 0.0, 0.0, 0.0, 0.0, 0.0, 0.0, 0.0, 0.0, 0.0, 0.0, 0.0, 0.0, 0.0, 0.0, 0.0, 0.0, 0.0, 0.0, 0.0, 0.0, 0.0, 0.0, 0.0, 0.0, 0.0, 0.0, 0.0, 0.0, 0.0, 0.0, 0.0, 0.0, 0.0, 0.0, 0.0, 0.0, 0.0, 0.0, 0.0, 0.0, 0.0, 0.0, 0.0, 0.0, 0.0, 0.0, 0.0, 0.0, 0.0, 0.0, 0.0, 0.0, 0.0, 0.0, 0.0, 0.0, 0.0, 0.0, 0.0, 0.0, 0.0, 0.0, 0.0, 0.0, 0.0, 0.0, 0.0, 0.0, 0.0, 0.0, 0.0, 0.0, 0.0, 0.0, 0.0, 0.0, 0.0, 0.0, 0.0, 0.0, 0.0, 0.0, 0.0, 0.0, 0.0, 0.0, 0.0, 0.0, 0.0, 0.0, 0.0, 0.0, 0.0, 0.0, 0.0]}